NAME : traveling-santa-2018-prime-paths.29428.tour
COMMENT : Length = 29428
COMMENT : Found by LKH [Keld Helsgaun] Sun Jun 12 20:00:28 2022
TYPE : TOUR
DIMENSION : 100
TOUR_SECTION
1
17
95
77
94
80
90
19
27
61
48
5
29
9
4
52
89
12
65
45
35
38
76
26
64
63
93
24
54
53
92
42
60
99
43
97
13
2
58
57
59
40
14
8
100
34
96
37
72
3
74
68
11
49
85
33
18
46
51
78
91
98
81
50
84
41
83
10
62
28
15
55
56
22
82
69
16
21
66
71
31
7
75
79
88
32
47
67
73
39
87
30
86
20
44
23
6
36
25
70
-1
EOF
